(set-logic QF_BV)
(define-fun implies ((p Bool) (q Bool)) Bool (or (not p) q))

(declare-const STANDARD_MODEL_NAME Bool)
(declare-const X Bool)
(declare-const Y Bool)
(declare-const Z Bool)
(declare-const A Bool)
(declare-const B Bool)
(declare-const C Bool)
(declare-const G Bool)
(declare-const H Bool)
(declare-const I Bool)
(assert
(and STANDARD_MODEL_NAME(and(implies(or X Y Z)
 STANDARD_MODEL_NAME)
(implies STANDARD_MODEL_NAME(or(and X(not Y)
(not Z))
(and(not X)
 Y(not Z))
(and(not X)
(not Y)
 Z)))
(and(implies A STANDARD_MODEL_NAME)
(implies B STANDARD_MODEL_NAME)
(implies C STANDARD_MODEL_NAME))
(=(or G H I)
 STANDARD_MODEL_NAME))
(implies STANDARD_MODEL_NAME A))
)